; TODO try replacing this with int
(declare-datatype nat ((zero) (s (s_0 nat))))
(declare-datatype tree (par (a) ((Leaf) (Node (Node_0 (tree a)) (Node_1 a) (Node_2 (tree a))))))
(declare-datatype pair (par (a b) ((Pair (Pair_0 a) (Pair_1 b)))))
(define-sort ptree (a b) (tree (pair a b)))
(declare-const LeafP (par (a b) (ptree a b)))
(assert (par (a b) (= (LeafP a b) (Leaf (pair a b)))))
(declare-fun NodeP (par (a b) ((ptree a b) a b (ptree a b)) (ptree a b)))
(assert (par (a b) (forall ((l (ptree a b)) (x a) (y b) (r (ptree a b))) (= (NodeP a b l x y r) (Node (pair a b) l (Pair a b x y) r)))))
(declare-datatype color ((Red) (Black)))
(define-sort rbt (a) (ptree a color))
(declare-fun plus (nat nat) nat)
(assert (forall ((x nat)) (= (plus zero x) x)))
(assert (forall ((x nat) (y nat)) (= (plus (s x) y) (s (plus x y)))))
(declare-fun mult (nat nat) nat)
(assert (forall ((x nat)) (= (mult zero x) zero)))
(assert (forall ((x nat) (y nat)) (= (mult (s x) y) (plus (mult x y) y))))
(declare-fun less (par (a) (a a) Bool))
(assert (forall ((x nat)) (not (less nat x zero))))
(assert (forall ((x nat)) (less nat zero (s x))))
(assert (forall ((x nat) (y nat)) (= (less nat (s x) (s y)) (less nat x y))))
(declare-fun leq (par (a) (a a) Bool))
(assert (par (a) (forall ((x a) (y a)) (= (leq a x y) (or (= x y) (less a x y))))))
(declare-fun pow (nat nat) nat)
(assert (forall ((x nat)) (= (pow x zero) (s zero))))
(assert (forall ((x nat) (e nat)) (= (pow x (s e)) (mult x (pow x e)))))
(declare-fun size1 (par (a) ((tree a)) nat))
(assert (par (a) (= (size1 a (Leaf a)) (s zero))))
(assert (par (a) (forall ((l (tree a)) (x a) (r (tree a))) (= (size1 a (Node a l x r)) (plus (size1 a l) (size1 a r))))))
(declare-fun color_of (par (a) ((rbt a)) color))
(assert (par (a) (= (color_of a (LeafP a color)) Black)))
(assert (par (a) (forall ((l (rbt a)) (x a) (c color) (r (rbt a))) (= (color_of a (NodeP a color l x c r)) c))))
(declare-fun invc (par (a) ((rbt a)) Bool))
(assert (par (a) (invc a (LeafP a color))))
(assert (par (a) (forall ((l (rbt a)) (x a) (c color) (r (rbt a))) (= (invc a (NodeP a color l x c r))
  (and (=> (= c Red) (and (= (color_of a l) Black) (= (color_of a r) Black))) (invc a l) (invc a r))))))
(declare-fun bh (par (a) ((rbt a)) nat))
(assert (par (a) (= (bh a (LeafP a color)) zero)))
(assert (par (a) (forall ((l (rbt a)) (x a) (c color) (r (rbt a))) (= (bh a (NodeP a color l x c r))
  (ite (= c Black) (s (bh a l)) (bh a l))))))
(declare-fun invh (par (a) ((rbt a)) Bool))
(assert (par (a) (invh a (LeafP a color))))
(assert (par (a) (forall ((l (rbt a)) (x a) (c color) (r (rbt a))) (= (invh a (NodeP a color l x c r))
  (and (= (bh a l) (bh a r)) (invh a l) (invh a r))))))

; invc(t) & invh(t) -> 2^bh(t) <= |t|_1
(assert-not (par (a) (forall ((t (rbt a))) (=> (and (invc a t) (invh a t)) (leq nat (pow (s (s zero)) (bh a t)) (size1 (pair a color) t))))))
